************************************************************************
file with basedata            : mm38_.bas
initial value random generator: 84442701
************************************************************************
projects                      :  1
jobs (incl. supersource/sink ):  12
horizon                       :  75
RESOURCES
  - renewable                 :  2   R
  - nonrenewable              :  2   N
  - doubly constrained        :  0   D
************************************************************************
PROJECT INFORMATION:
pronr.  #jobs rel.date duedate tardcost  MPM-Time
    1     10      0       12        2       12
************************************************************************
PRECEDENCE RELATIONS:
jobnr.    #modes  #successors   successors
   0        1          3           1   2   3
   1        3          2           4   9
   2        3          2           6  10
   3        3          1           8
   4        3          2           5   7
   5        3          2           8  10
   6        3          1           9
   7        3          2           8  10
   8        3          1          11
   9        3          1          11
  10        3          1          11
  11        1          0        
************************************************************************
REQUESTS/DURATIONS:
jobnr. mode duration  R 1  R 2  R 3  R 4  E(W 1)  E(W 2)
------------------------------------------------------------------------
  0      1     0       0    0    0    0     0       0
  1      1     3       7    3    7    9    30      48
  2      1     3       8   10   10    3    54      39
  3      1     1       7    2    3    6     9       9
  4      1     1       8    8    9    6    16      15
  5      1     3       9    2   10    9    33      57
  6      1     4       4    9    7    4    52      44
  7      1     2      10   10    6    8    40      28
  8      1     5       5    6    9    5    55      70
  9      1     1       5    8   10    8    13      18
 10      1     3       9    7    4    7    48      33
 11      1     0       0    0    0    0     0       0
************************************************************************
RESOURCEAVAILABILITIES:
  R 1  R 2
   25   118
************************************************************************
RESOURCE LIMITS:
jobnr.  l(R 1)  u(R 1)  l(R 2)  u(R 2)
------------------------------------------------------------------------
  0        0       0       0       0
  1        6      10       9      16
  2        9      18       7      13
  3        5       9       5       9
  4        8      16       8      15
  5        6      11      10      19
  6        7      13       6      11
  7       10      20       7      14
  8        6      11       8      14
  9        7      13       9      18
 10        9      16       6      11
 11        0       0       0       0
************************************************************************
SCENARIOS:
------------------------------------------------------------------------
RESOURCE k = 1
s = 1: (0, 28, 57, 9, 14, 31, 37, 29, 83, 11, 29, 0)
s = 2: (0, 20, 55, 11, 10, 51, 50, 42, 42, 10, 43, 0)
s = 3: (0, 36, 56, 7, 14, 44, 32, 58, 48, 13, 44, 0)
s = 4: (0, 36, 85, 6, 15, 42, 51, 34, 89, 17, 33, 0)
s = 5: (0, 44, 70, 11, 15, 47, 39, 26, 50, 15, 62, 0)
s = 6: (0, 34, 72, 11, 18, 25, 37, 46, 60, 13, 51, 0)
s = 7: (0, 39, 79, 10, 15, 46, 50, 34, 88, 10, 33, 0)
s = 8: (0, 19, 39, 7, 22, 39, 68, 46, 60, 18, 40, 0)
s = 9: (0, 30, 58, 10, 23, 34, 69, 56, 63, 14, 31, 0)
s = 10: (0, 33, 92, 7, 15, 30, 57, 46, 34, 12, 41, 0)
s = 11: (0, 19, 30, 13, 21, 32, 47, 54, 46, 12, 26, 0)
s = 12: (0, 45, 41, 12, 15, 40, 64, 56, 30, 10, 48, 0)
s = 13: (0, 36, 68, 9, 19, 29, 45, 61, 68, 10, 56, 0)
s = 14: (0, 35, 77, 11, 17, 33, 46, 26, 50, 15, 35, 0)
s = 15: (0, 37, 49, 11, 18, 38, 42, 59, 50, 17, 58, 0)
s = 16: (0, 23, 73, 11, 30, 37, 48, 34, 57, 22, 89, 0)
s = 17: (0, 30, 49, 10, 11, 50, 49, 36, 50, 10, 39, 0)
s = 18: (0, 22, 86, 9, 22, 28, 44, 54, 42, 17, 71, 0)
s = 19: (0, 43, 65, 6, 23, 42, 60, 37, 37, 21, 35, 0)
s = 20: (0, 28, 45, 15, 21, 30, 31, 37, 64, 17, 59, 0)
s = 21: (0, 25, 51, 8, 12, 31, 50, 49, 42, 15, 46, 0)
s = 22: (0, 18, 83, 13, 19, 27, 42, 61, 63, 14, 50, 0)
s = 23: (0, 28, 48, 8, 16, 24, 64, 24, 42, 13, 50, 0)
s = 24: (0, 26, 43, 7, 19, 28, 48, 30, 59, 12, 28, 0)
s = 25: (0, 30, 41, 8, 15, 33, 43, 48, 68, 20, 44, 0)
s = 26: (0, 38, 62, 11, 23, 28, 74, 24, 43, 8, 75, 0)
s = 27: (0, 18, 54, 10, 17, 28, 79, 38, 58, 12, 34, 0)
s = 28: (0, 27, 54, 7, 14, 26, 73, 33, 34, 8, 51, 0)
s = 29: (0, 32, 29, 8, 15, 44, 47, 49, 52, 10, 49, 0)
s = 30: (0, 22, 48, 7, 11, 21, 33, 28, 40, 24, 60, 0)
s = 31: (0, 21, 55, 8, 31, 27, 50, 46, 80, 10, 66, 0)
s = 32: (0, 26, 32, 10, 11, 44, 48, 33, 38, 12, 40, 0)
s = 33: (0, 33, 37, 12, 12, 51, 35, 37, 72, 10, 82, 0)
s = 34: (0, 22, 75, 6, 18, 24, 55, 50, 42, 13, 37, 0)
s = 35: (0, 33, 39, 6, 22, 26, 52, 58, 44, 12, 49, 0)
s = 36: (0, 38, 36, 11, 23, 37, 41, 43, 52, 10, 66, 0)
s = 37: (0, 40, 40, 7, 19, 37, 42, 38, 54, 10, 31, 0)
s = 38: (0, 27, 35, 10, 10, 43, 32, 32, 50, 20, 55, 0)
s = 39: (0, 29, 34, 9, 27, 30, 39, 60, 37, 14, 66, 0)
s = 40: (0, 40, 53, 6, 11, 19, 51, 29, 43, 16, 60, 0)
s = 41: (0, 56, 59, 9, 20, 32, 41, 41, 108, 7, 30, 0)
s = 42: (0, 21, 94, 12, 21, 34, 54, 30, 41, 17, 46, 0)
s = 43: (0, 20, 81, 9, 14, 27, 69, 39, 42, 20, 58, 0)
s = 44: (0, 50, 38, 8, 14, 27, 33, 49, 57, 11, 44, 0)
s = 45: (0, 26, 38, 11, 9, 54, 47, 52, 47, 18, 53, 0)
s = 46: (0, 30, 42, 7, 17, 22, 56, 49, 45, 18, 54, 0)
s = 47: (0, 38, 57, 7, 16, 20, 85, 44, 39, 9, 32, 0)
s = 48: (0, 43, 54, 12, 13, 31, 30, 57, 50, 12, 47, 0)
s = 49: (0, 25, 42, 9, 12, 34, 37, 46, 54, 8, 48, 0)
s = 50: (0, 20, 97, 9, 16, 30, 43, 45, 50, 14, 35, 0)
s = 51: (0, 33, 42, 6, 18, 30, 51, 21, 74, 14, 41, 0)
s = 52: (0, 24, 67, 12, 22, 33, 43, 39, 53, 15, 38, 0)
s = 53: (0, 52, 38, 12, 20, 29, 71, 43, 51, 15, 49, 0)
s = 54: (0, 40, 58, 8, 11, 18, 36, 45, 34, 10, 77, 0)
s = 55: (0, 34, 36, 9, 19, 37, 47, 36, 86, 9, 58, 0)
s = 56: (0, 31, 37, 6, 16, 32, 47, 52, 44, 20, 37, 0)
s = 57: (0, 36, 46, 8, 16, 54, 39, 52, 55, 13, 31, 0)
s = 58: (0, 40, 46, 7, 13, 24, 47, 59, 57, 11, 38, 0)
s = 59: (0, 24, 49, 12, 24, 19, 42, 64, 67, 14, 53, 0)
s = 60: (0, 39, 85, 11, 14, 22, 69, 71, 58, 18, 36, 0)
s = 61: (0, 33, 49, 11, 12, 45, 48, 66, 41, 15, 45, 0)
s = 62: (0, 36, 45, 6, 19, 25, 68, 52, 77, 15, 50, 0)
s = 63: (0, 36, 68, 9, 17, 31, 34, 37, 56, 11, 59, 0)
s = 64: (0, 30, 66, 6, 17, 26, 39, 33, 38, 15, 36, 0)
s = 65: (0, 43, 47, 10, 21, 45, 57, 27, 61, 9, 42, 0)
s = 66: (0, 50, 29, 11, 15, 37, 49, 48, 70, 10, 45, 0)
s = 67: (0, 35, 46, 7, 15, 53, 48, 29, 70, 15, 79, 0)
s = 68: (0, 23, 48, 13, 21, 33, 91, 63, 77, 12, 40, 0)
s = 69: (0, 31, 44, 7, 14, 25, 73, 51, 56, 25, 47, 0)
s = 70: (0, 44, 56, 15, 18, 32, 56, 41, 63, 16, 68, 0)
s = 71: (0, 22, 38, 12, 21, 23, 39, 37, 40, 15, 49, 0)
s = 72: (0, 43, 41, 7, 17, 30, 72, 34, 89, 11, 37, 0)
s = 73: (0, 23, 39, 14, 23, 59, 30, 35, 69, 16, 30, 0)
s = 74: (0, 18, 52, 13, 23, 41, 49, 34, 61, 11, 42, 0)
s = 75: (0, 47, 73, 6, 11, 29, 35, 50, 45, 18, 51, 0)
s = 76: (0, 19, 80, 12, 12, 29, 51, 27, 33, 17, 44, 0)
s = 77: (0, 33, 39, 12, 17, 26, 55, 28, 53, 15, 30, 0)
s = 78: (0, 38, 64, 11, 17, 33, 45, 29, 45, 15, 52, 0)
s = 79: (0, 36, 59, 12, 11, 21, 50, 56, 80, 10, 69, 0)
s = 80: (0, 52, 40, 10, 17, 32, 29, 43, 38, 14, 59, 0)
s = 81: (0, 27, 63, 11, 9, 26, 60, 58, 65, 16, 75, 0)
s = 82: (0, 21, 51, 12, 16, 35, 32, 38, 43, 12, 41, 0)
s = 83: (0, 22, 59, 7, 11, 26, 51, 42, 42, 16, 55, 0)
s = 84: (0, 29, 62, 9, 17, 38, 39, 60, 38, 16, 59, 0)
s = 85: (0, 26, 29, 8, 13, 22, 65, 29, 58, 12, 55, 0)
s = 86: (0, 26, 69, 11, 21, 40, 53, 38, 62, 11, 44, 0)
s = 87: (0, 22, 45, 11, 11, 29, 77, 26, 79, 10, 74, 0)
s = 88: (0, 22, 80, 9, 14, 27, 60, 24, 85, 11, 68, 0)
s = 89: (0, 28, 33, 13, 18, 33, 51, 39, 38, 16, 38, 0)
s = 90: (0, 28, 71, 9, 14, 34, 52, 38, 49, 19, 64, 0)
s = 91: (0, 39, 48, 14, 19, 38, 52, 43, 55, 15, 40, 0)
s = 92: (0, 35, 82, 5, 27, 24, 64, 29, 56, 11, 36, 0)
s = 93: (0, 18, 48, 6, 17, 38, 67, 24, 43, 12, 61, 0)
s = 94: (0, 33, 61, 11, 18, 52, 59, 26, 69, 15, 58, 0)
s = 95: (0, 24, 37, 9, 16, 32, 69, 32, 60, 9, 35, 0)
s = 96: (0, 42, 36, 17, 17, 45, 40, 38, 58, 11, 38, 0)
s = 97: (0, 41, 94, 8, 12, 44, 37, 32, 34, 15, 65, 0)
s = 98: (0, 17, 42, 10, 11, 41, 50, 39, 36, 9, 57, 0)
s = 99: (0, 36, 58, 10, 17, 30, 64, 57, 57, 17, 39, 0)
s = 100: (0, 24, 55, 5, 19, 36, 53, 36, 41, 17, 44, 0)
s = 101: (0, 22, 59, 12, 26, 29, 44, 40, 53, 11, 49, 0)
s = 102: (0, 16, 56, 14, 23, 32, 47, 64, 54, 11, 63, 0)
s = 103: (0, 31, 49, 8, 19, 25, 60, 32, 72, 9, 65, 0)
s = 104: (0, 49, 57, 11, 12, 36, 32, 32, 51, 11, 75, 0)
s = 105: (0, 35, 34, 9, 18, 19, 49, 32, 65, 11, 37, 0)
s = 106: (0, 21, 43, 7, 25, 45, 63, 62, 32, 12, 73, 0)
s = 107: (0, 41, 92, 9, 19, 34, 59, 37, 61, 14, 73, 0)
s = 108: (0, 27, 29, 12, 19, 41, 91, 48, 30, 12, 28, 0)
s = 109: (0, 27, 32, 12, 16, 23, 55, 34, 49, 9, 67, 0)
s = 110: (0, 41, 66, 7, 14, 33, 34, 54, 44, 12, 58, 0)
s = 111: (0, 31, 41, 7, 12, 34, 64, 35, 71, 15, 32, 0)
s = 112: (0, 37, 36, 7, 12, 38, 34, 40, 61, 16, 63, 0)
s = 113: (0, 32, 38, 7, 18, 56, 32, 52, 71, 12, 45, 0)
s = 114: (0, 32, 99, 8, 14, 30, 40, 29, 74, 10, 33, 0)
s = 115: (0, 22, 82, 6, 19, 36, 56, 51, 57, 9, 56, 0)
s = 116: (0, 27, 44, 5, 11, 27, 43, 47, 88, 17, 42, 0)
s = 117: (0, 17, 70, 9, 19, 28, 53, 46, 76, 11, 47, 0)
s = 118: (0, 46, 54, 7, 15, 29, 37, 55, 41, 15, 60, 0)
s = 119: (0, 24, 52, 11, 26, 30, 48, 39, 58, 14, 34, 0)
s = 120: (0, 35, 48, 13, 24, 24, 58, 41, 47, 19, 52, 0)
s = 121: (0, 29, 71, 14, 18, 28, 44, 59, 31, 12, 49, 0)
s = 122: (0, 30, 59, 12, 14, 34, 80, 47, 35, 12, 33, 0)
s = 123: (0, 38, 85, 11, 18, 39, 47, 40, 50, 11, 63, 0)
s = 124: (0, 18, 58, 13, 14, 34, 35, 50, 43, 23, 30, 0)
s = 125: (0, 43, 59, 7, 14, 33, 74, 46, 40, 9, 26, 0)
s = 126: (0, 30, 92, 12, 21, 28, 52, 38, 56, 14, 60, 0)
s = 127: (0, 26, 53, 8, 12, 30, 69, 28, 56, 13, 28, 0)
s = 128: (0, 33, 41, 8, 26, 33, 41, 49, 52, 11, 55, 0)
s = 129: (0, 29, 63, 7, 12, 36, 66, 52, 66, 12, 43, 0)
s = 130: (0, 50, 48, 12, 20, 32, 47, 28, 71, 11, 51, 0)
s = 131: (0, 24, 59, 12, 23, 58, 66, 33, 32, 19, 45, 0)
s = 132: (0, 32, 40, 8, 15, 33, 48, 43, 65, 12, 65, 0)
s = 133: (0, 33, 61, 7, 12, 42, 38, 27, 60, 9, 39, 0)
s = 134: (0, 33, 40, 13, 19, 33, 32, 35, 51, 12, 39, 0)
s = 135: (0, 27, 53, 9, 16, 24, 40, 26, 69, 10, 52, 0)
s = 136: (0, 25, 41, 13, 13, 24, 80, 42, 67, 11, 39, 0)
s = 137: (0, 36, 61, 8, 25, 26, 37, 52, 60, 15, 39, 0)
s = 138: (0, 39, 66, 14, 13, 24, 46, 31, 48, 15, 32, 0)
s = 139: (0, 23, 47, 12, 21, 33, 44, 27, 84, 14, 39, 0)
s = 140: (0, 17, 55, 6, 22, 23, 41, 52, 59, 13, 34, 0)
s = 141: (0, 36, 46, 7, 18, 31, 50, 36, 50, 12, 42, 0)
s = 142: (0, 43, 61, 10, 13, 21, 48, 23, 77, 10, 60, 0)
s = 143: (0, 22, 43, 10, 20, 37, 59, 40, 87, 12, 73, 0)
s = 144: (0, 26, 68, 11, 21, 26, 70, 36, 56, 18, 38, 0)
s = 145: (0, 45, 46, 9, 11, 34, 73, 48, 41, 8, 31, 0)
s = 146: (0, 44, 38, 8, 26, 41, 63, 38, 51, 13, 33, 0)
s = 147: (0, 38, 53, 5, 19, 36, 53, 35, 60, 17, 42, 0)
s = 148: (0, 25, 58, 12, 15, 48, 49, 72, 74, 13, 34, 0)
s = 149: (0, 49, 48, 13, 18, 36, 47, 37, 50, 15, 61, 0)
s = 150: (0, 21, 72, 9, 14, 49, 76, 45, 62, 9, 26, 0)
s = 151: (0, 40, 37, 13, 12, 46, 52, 45, 50, 14, 67, 0)
s = 152: (0, 26, 45, 7, 17, 29, 38, 36, 35, 13, 48, 0)
s = 153: (0, 20, 75, 9, 12, 40, 50, 42, 84, 14, 84, 0)
s = 154: (0, 25, 51, 11, 13, 25, 52, 40, 58, 20, 58, 0)
s = 155: (0, 22, 65, 8, 14, 40, 72, 37, 73, 17, 38, 0)
s = 156: (0, 38, 47, 11, 16, 31, 45, 34, 61, 16, 40, 0)
s = 157: (0, 24, 68, 9, 14, 23, 38, 37, 64, 15, 54, 0)
s = 158: (0, 18, 67, 12, 14, 25, 57, 52, 53, 19, 78, 0)
s = 159: (0, 28, 54, 6, 20, 39, 40, 42, 44, 11, 46, 0)
s = 160: (0, 28, 46, 7, 16, 26, 33, 33, 56, 14, 43, 0)
s = 161: (0, 25, 50, 9, 11, 25, 60, 43, 72, 17, 42, 0)
s = 162: (0, 23, 34, 9, 12, 24, 46, 40, 46, 13, 52, 0)
s = 163: (0, 35, 56, 7, 11, 25, 91, 26, 58, 10, 48, 0)
s = 164: (0, 25, 51, 7, 28, 36, 65, 38, 64, 11, 39, 0)
s = 165: (0, 22, 35, 14, 22, 46, 55, 34, 59, 12, 67, 0)
s = 166: (0, 19, 59, 11, 9, 27, 59, 36, 43, 12, 61, 0)
s = 167: (0, 41, 54, 8, 17, 30, 71, 25, 80, 12, 68, 0)
s = 168: (0, 33, 44, 10, 21, 28, 42, 50, 52, 14, 71, 0)
s = 169: (0, 45, 61, 10, 11, 32, 59, 43, 58, 18, 56, 0)
s = 170: (0, 22, 61, 10, 22, 32, 81, 23, 64, 9, 47, 0)
s = 171: (0, 36, 55, 14, 16, 21, 81, 49, 36, 10, 60, 0)
s = 172: (0, 44, 84, 10, 15, 25, 79, 38, 46, 15, 75, 0)
s = 173: (0, 37, 76, 9, 13, 37, 78, 30, 35, 15, 72, 0)
s = 174: (0, 16, 55, 7, 19, 27, 31, 39, 74, 17, 36, 0)
s = 175: (0, 30, 51, 11, 12, 36, 38, 48, 36, 19, 71, 0)
s = 176: (0, 47, 43, 11, 17, 41, 76, 31, 30, 13, 39, 0)
s = 177: (0, 20, 52, 11, 15, 25, 42, 35, 62, 15, 73, 0)
s = 178: (0, 28, 58, 7, 9, 43, 68, 40, 87, 15, 67, 0)
s = 179: (0, 21, 45, 11, 11, 30, 35, 49, 71, 10, 90, 0)
s = 180: (0, 38, 64, 12, 23, 27, 41, 22, 51, 13, 39, 0)
s = 181: (0, 20, 76, 7, 11, 43, 48, 39, 55, 16, 37, 0)
s = 182: (0, 29, 75, 10, 15, 27, 68, 39, 53, 10, 53, 0)
s = 183: (0, 36, 53, 5, 20, 29, 42, 45, 45, 15, 39, 0)
s = 184: (0, 22, 35, 12, 15, 42, 75, 42, 55, 14, 76, 0)
s = 185: (0, 21, 29, 14, 10, 34, 57, 36, 36, 18, 45, 0)
s = 186: (0, 19, 82, 8, 14, 27, 39, 40, 88, 10, 47, 0)
s = 187: (0, 30, 54, 10, 18, 50, 47, 54, 39, 15, 37, 0)
s = 188: (0, 36, 30, 7, 15, 30, 31, 39, 57, 13, 41, 0)
s = 189: (0, 32, 36, 10, 22, 33, 30, 28, 51, 13, 33, 0)
s = 190: (0, 41, 39, 9, 16, 27, 48, 31, 63, 22, 59, 0)
s = 191: (0, 27, 43, 9, 10, 25, 59, 30, 60, 15, 45, 0)
s = 192: (0, 24, 40, 8, 13, 29, 52, 36, 51, 13, 34, 0)
s = 193: (0, 24, 36, 13, 19, 39, 63, 38, 31, 14, 55, 0)
s = 194: (0, 27, 55, 12, 19, 31, 69, 60, 31, 13, 72, 0)
s = 195: (0, 33, 62, 13, 9, 42, 41, 36, 33, 11, 42, 0)
s = 196: (0, 28, 48, 10, 16, 29, 42, 30, 96, 8, 57, 0)
s = 197: (0, 30, 53, 9, 20, 38, 58, 26, 50, 13, 30, 0)
s = 198: (0, 23, 77, 10, 10, 25, 47, 49, 45, 12, 43, 0)
s = 199: (0, 26, 63, 7, 13, 33, 38, 34, 60, 20, 39, 0)
s = 200: (0, 29, 92, 16, 15, 44, 51, 43, 69, 9, 42, 0)
------------------------------------------------------------------------
RESOURCE k = 2
s = 1: (0, 45, 42, 9, 13, 53, 31, 21, 105, 15, 20, 0)
s = 2: (0, 32, 40, 11, 10, 87, 43, 29, 54, 14, 29, 0)
s = 3: (0, 57, 41, 7, 13, 75, 27, 41, 61, 17, 30, 0)
s = 4: (0, 57, 62, 6, 14, 72, 43, 24, 113, 24, 23, 0)
s = 5: (0, 71, 51, 11, 15, 80, 33, 18, 64, 20, 43, 0)
s = 6: (0, 54, 52, 11, 17, 43, 31, 32, 76, 18, 35, 0)
s = 7: (0, 62, 58, 10, 14, 79, 42, 24, 112, 14, 23, 0)
s = 8: (0, 29, 28, 7, 21, 67, 57, 32, 77, 25, 28, 0)
s = 9: (0, 48, 42, 10, 21, 58, 58, 39, 80, 20, 21, 0)
s = 10: (0, 52, 66, 7, 14, 51, 48, 32, 43, 17, 28, 0)
s = 11: (0, 30, 22, 13, 20, 56, 40, 38, 59, 17, 18, 0)
s = 12: (0, 71, 30, 12, 14, 69, 55, 40, 38, 14, 33, 0)
s = 13: (0, 58, 49, 9, 18, 50, 38, 43, 86, 13, 38, 0)
s = 14: (0, 55, 55, 11, 16, 56, 39, 18, 64, 21, 24, 0)
s = 15: (0, 59, 35, 11, 17, 66, 36, 41, 64, 23, 40, 0)
s = 16: (0, 37, 53, 11, 28, 63, 41, 24, 72, 31, 62, 0)
s = 17: (0, 47, 36, 10, 10, 86, 41, 26, 64, 14, 27, 0)
s = 18: (0, 34, 62, 9, 20, 48, 37, 38, 54, 24, 49, 0)
s = 19: (0, 68, 47, 6, 22, 72, 51, 26, 47, 29, 24, 0)
s = 20: (0, 44, 32, 15, 20, 51, 26, 26, 81, 24, 41, 0)
s = 21: (0, 39, 37, 8, 11, 53, 42, 34, 53, 21, 32, 0)
s = 22: (0, 29, 60, 13, 18, 47, 35, 43, 80, 20, 34, 0)
s = 23: (0, 45, 35, 8, 15, 41, 55, 17, 53, 18, 35, 0)
s = 24: (0, 42, 31, 7, 18, 48, 41, 21, 76, 17, 19, 0)
s = 25: (0, 48, 30, 8, 14, 56, 37, 34, 87, 28, 30, 0)
s = 26: (0, 60, 45, 11, 21, 48, 63, 17, 55, 11, 52, 0)
s = 27: (0, 28, 39, 10, 16, 49, 67, 27, 74, 17, 24, 0)
s = 28: (0, 44, 39, 7, 13, 44, 62, 23, 43, 11, 35, 0)
s = 29: (0, 50, 21, 8, 14, 76, 40, 34, 66, 14, 34, 0)
s = 30: (0, 35, 35, 7, 10, 36, 28, 19, 51, 33, 42, 0)
s = 31: (0, 33, 40, 8, 29, 46, 42, 32, 102, 13, 45, 0)
s = 32: (0, 41, 23, 10, 10, 76, 40, 23, 48, 17, 28, 0)
s = 33: (0, 53, 27, 12, 11, 87, 30, 26, 92, 14, 57, 0)
s = 34: (0, 35, 54, 6, 17, 41, 47, 35, 54, 17, 26, 0)
s = 35: (0, 53, 28, 6, 20, 45, 44, 41, 56, 17, 34, 0)
s = 36: (0, 60, 26, 11, 22, 63, 35, 30, 67, 14, 45, 0)
s = 37: (0, 64, 29, 7, 18, 63, 35, 26, 68, 13, 22, 0)
s = 38: (0, 44, 26, 10, 10, 73, 27, 23, 64, 27, 38, 0)
s = 39: (0, 45, 25, 9, 25, 51, 33, 42, 47, 19, 46, 0)
s = 40: (0, 64, 38, 6, 10, 32, 44, 20, 54, 22, 41, 0)
s = 41: (0, 89, 43, 9, 19, 55, 35, 29, 137, 10, 21, 0)
s = 42: (0, 34, 68, 12, 20, 58, 46, 21, 52, 23, 31, 0)
s = 43: (0, 31, 59, 9, 13, 46, 58, 27, 54, 27, 40, 0)
s = 44: (0, 79, 27, 8, 14, 46, 28, 34, 72, 15, 31, 0)
s = 45: (0, 41, 28, 11, 9, 93, 40, 36, 60, 25, 36, 0)
s = 46: (0, 48, 31, 7, 16, 37, 48, 35, 57, 25, 37, 0)
s = 47: (0, 61, 41, 7, 15, 34, 72, 31, 49, 13, 22, 0)
s = 48: (0, 68, 39, 12, 12, 53, 25, 40, 63, 16, 32, 0)
s = 49: (0, 40, 30, 9, 11, 59, 31, 32, 68, 12, 33, 0)
s = 50: (0, 32, 70, 9, 15, 52, 37, 32, 63, 19, 24, 0)
s = 51: (0, 52, 31, 6, 17, 51, 43, 15, 94, 19, 29, 0)
s = 52: (0, 38, 48, 12, 21, 57, 36, 28, 68, 20, 27, 0)
s = 53: (0, 82, 28, 12, 19, 50, 60, 30, 64, 21, 34, 0)
s = 54: (0, 64, 42, 8, 11, 32, 30, 32, 43, 14, 53, 0)
s = 55: (0, 54, 26, 9, 18, 63, 40, 26, 109, 12, 40, 0)
s = 56: (0, 49, 27, 6, 15, 55, 40, 37, 56, 27, 25, 0)
s = 57: (0, 57, 34, 8, 15, 93, 33, 36, 70, 17, 21, 0)
s = 58: (0, 64, 33, 7, 12, 41, 40, 41, 72, 15, 26, 0)
s = 59: (0, 39, 36, 12, 22, 33, 36, 45, 86, 19, 37, 0)
s = 60: (0, 62, 61, 11, 14, 37, 58, 50, 74, 25, 25, 0)
s = 61: (0, 52, 35, 11, 12, 78, 41, 46, 52, 21, 31, 0)
s = 62: (0, 58, 33, 6, 17, 43, 58, 36, 97, 20, 35, 0)
s = 63: (0, 58, 49, 9, 16, 53, 29, 26, 71, 15, 41, 0)
s = 64: (0, 47, 48, 6, 16, 45, 33, 23, 49, 20, 25, 0)
s = 65: (0, 68, 34, 10, 20, 78, 48, 19, 77, 12, 29, 0)
s = 66: (0, 79, 21, 11, 14, 64, 41, 34, 90, 14, 31, 0)
s = 67: (0, 56, 33, 7, 14, 90, 41, 20, 89, 21, 54, 0)
s = 68: (0, 36, 35, 13, 20, 57, 77, 44, 98, 17, 28, 0)
s = 69: (0, 50, 32, 7, 14, 43, 62, 36, 71, 34, 32, 0)
s = 70: (0, 70, 40, 15, 16, 55, 47, 29, 80, 23, 47, 0)
s = 71: (0, 35, 27, 12, 20, 39, 33, 26, 50, 21, 34, 0)
s = 72: (0, 69, 30, 7, 16, 52, 61, 24, 113, 15, 25, 0)
s = 73: (0, 36, 29, 14, 22, 102, 26, 24, 87, 23, 21, 0)
s = 74: (0, 29, 37, 13, 22, 70, 42, 24, 78, 15, 29, 0)
s = 75: (0, 75, 53, 6, 11, 50, 29, 35, 57, 25, 35, 0)
s = 76: (0, 30, 58, 12, 11, 50, 43, 19, 41, 23, 31, 0)
s = 77: (0, 52, 29, 12, 16, 45, 46, 20, 67, 20, 21, 0)
s = 78: (0, 61, 46, 11, 16, 57, 38, 21, 57, 21, 36, 0)
s = 79: (0, 57, 43, 12, 11, 37, 42, 39, 101, 14, 48, 0)
s = 80: (0, 83, 29, 10, 16, 55, 25, 30, 48, 19, 41, 0)
s = 81: (0, 43, 45, 11, 9, 45, 51, 41, 83, 21, 52, 0)
s = 82: (0, 33, 37, 12, 15, 60, 27, 27, 54, 16, 28, 0)
s = 83: (0, 36, 43, 7, 10, 45, 43, 29, 53, 22, 38, 0)
s = 84: (0, 46, 45, 9, 16, 65, 33, 42, 48, 22, 40, 0)
s = 85: (0, 41, 21, 8, 12, 38, 55, 21, 73, 16, 38, 0)
s = 86: (0, 41, 50, 11, 19, 69, 45, 27, 79, 15, 30, 0)
s = 87: (0, 35, 33, 11, 10, 50, 66, 19, 101, 13, 51, 0)
s = 88: (0, 35, 58, 9, 13, 47, 51, 17, 108, 15, 47, 0)
s = 89: (0, 45, 24, 13, 17, 57, 43, 27, 49, 22, 26, 0)
s = 90: (0, 45, 51, 9, 13, 58, 44, 27, 63, 26, 44, 0)
s = 91: (0, 63, 35, 14, 18, 65, 44, 31, 69, 21, 28, 0)
s = 92: (0, 55, 60, 5, 25, 41, 55, 21, 71, 15, 25, 0)
s = 93: (0, 28, 35, 6, 16, 65, 57, 17, 55, 17, 42, 0)
s = 94: (0, 52, 44, 11, 17, 89, 50, 18, 87, 20, 40, 0)
s = 95: (0, 38, 27, 9, 15, 56, 58, 22, 77, 13, 24, 0)
s = 96: (0, 66, 26, 17, 16, 77, 34, 27, 74, 14, 26, 0)
s = 97: (0, 65, 68, 8, 12, 76, 32, 23, 43, 20, 45, 0)
s = 98: (0, 26, 30, 10, 11, 70, 42, 27, 46, 12, 39, 0)
s = 99: (0, 58, 42, 10, 16, 51, 54, 40, 72, 23, 27, 0)
s = 100: (0, 38, 40, 5, 18, 62, 45, 25, 52, 24, 31, 0)
s = 101: (0, 36, 43, 12, 25, 49, 37, 28, 68, 14, 34, 0)
s = 102: (0, 26, 41, 14, 22, 54, 40, 45, 68, 15, 43, 0)
s = 103: (0, 50, 36, 8, 18, 42, 51, 22, 92, 12, 45, 0)
s = 104: (0, 78, 41, 11, 11, 62, 27, 22, 65, 15, 52, 0)
s = 105: (0, 55, 25, 9, 17, 33, 41, 23, 82, 15, 26, 0)
s = 106: (0, 33, 31, 7, 23, 78, 53, 43, 40, 16, 50, 0)
s = 107: (0, 65, 67, 9, 17, 58, 50, 26, 78, 19, 50, 0)
s = 108: (0, 43, 21, 12, 17, 71, 77, 33, 37, 16, 19, 0)
s = 109: (0, 43, 23, 12, 15, 39, 47, 24, 62, 13, 46, 0)
s = 110: (0, 65, 48, 7, 13, 56, 29, 38, 56, 17, 40, 0)
s = 111: (0, 49, 29, 7, 11, 58, 54, 24, 90, 20, 22, 0)
s = 112: (0, 59, 26, 7, 11, 65, 29, 28, 77, 21, 43, 0)
s = 113: (0, 51, 28, 7, 17, 97, 27, 36, 90, 17, 31, 0)
s = 114: (0, 51, 71, 8, 13, 51, 34, 20, 94, 14, 23, 0)
s = 115: (0, 34, 59, 6, 18, 61, 48, 36, 72, 13, 38, 0)
s = 116: (0, 43, 32, 5, 10, 45, 36, 33, 112, 23, 29, 0)
s = 117: (0, 27, 51, 9, 18, 49, 45, 32, 96, 16, 33, 0)
s = 118: (0, 73, 39, 7, 14, 50, 32, 39, 53, 21, 41, 0)
s = 119: (0, 38, 37, 11, 25, 52, 40, 27, 74, 20, 24, 0)
s = 120: (0, 56, 35, 13, 22, 41, 49, 29, 60, 26, 36, 0)
s = 121: (0, 47, 52, 14, 17, 48, 37, 41, 40, 16, 34, 0)
s = 122: (0, 48, 43, 12, 13, 58, 68, 33, 45, 16, 23, 0)
s = 123: (0, 61, 62, 11, 17, 68, 40, 28, 63, 14, 43, 0)
s = 124: (0, 29, 42, 13, 13, 59, 29, 35, 55, 32, 21, 0)
s = 125: (0, 68, 42, 7, 13, 57, 63, 32, 51, 12, 18, 0)
s = 126: (0, 47, 66, 12, 19, 48, 44, 27, 72, 19, 42, 0)
s = 127: (0, 41, 38, 8, 11, 51, 58, 20, 71, 18, 20, 0)
s = 128: (0, 52, 30, 8, 24, 57, 35, 34, 66, 15, 38, 0)
s = 129: (0, 46, 46, 7, 12, 61, 56, 36, 84, 16, 30, 0)
s = 130: (0, 79, 35, 12, 19, 56, 40, 20, 91, 15, 35, 0)
s = 131: (0, 38, 43, 12, 22, 99, 56, 24, 41, 26, 31, 0)
s = 132: (0, 51, 29, 8, 14, 57, 41, 30, 83, 16, 45, 0)
s = 133: (0, 52, 44, 7, 11, 72, 32, 19, 76, 12, 27, 0)
s = 134: (0, 52, 29, 13, 18, 56, 27, 24, 65, 16, 27, 0)
s = 135: (0, 43, 38, 9, 15, 40, 34, 19, 88, 14, 36, 0)
s = 136: (0, 39, 30, 13, 13, 40, 67, 29, 85, 15, 27, 0)
s = 137: (0, 57, 45, 8, 24, 44, 31, 37, 76, 21, 27, 0)
s = 138: (0, 61, 48, 14, 12, 41, 39, 22, 61, 21, 22, 0)
s = 139: (0, 37, 34, 12, 20, 56, 37, 19, 106, 20, 27, 0)
s = 140: (0, 27, 40, 6, 21, 40, 35, 37, 75, 18, 24, 0)
s = 141: (0, 57, 33, 7, 17, 53, 42, 26, 63, 17, 29, 0)
s = 142: (0, 69, 45, 10, 12, 35, 41, 16, 98, 14, 42, 0)
s = 143: (0, 36, 31, 10, 19, 63, 50, 28, 110, 16, 51, 0)
s = 144: (0, 42, 49, 11, 20, 45, 60, 26, 72, 25, 26, 0)
s = 145: (0, 72, 33, 9, 10, 58, 61, 34, 52, 11, 22, 0)
s = 146: (0, 70, 28, 8, 24, 71, 54, 27, 65, 18, 23, 0)
s = 147: (0, 61, 39, 5, 18, 62, 45, 25, 76, 23, 29, 0)
s = 148: (0, 40, 42, 12, 14, 83, 42, 51, 94, 18, 24, 0)
s = 149: (0, 78, 34, 13, 17, 62, 40, 26, 64, 21, 42, 0)
s = 150: (0, 33, 52, 9, 13, 85, 64, 32, 79, 12, 18, 0)
s = 151: (0, 64, 27, 13, 11, 79, 44, 32, 64, 20, 46, 0)
s = 152: (0, 41, 33, 7, 16, 50, 32, 25, 44, 18, 33, 0)
s = 153: (0, 31, 54, 9, 11, 69, 42, 29, 107, 19, 58, 0)
s = 154: (0, 40, 37, 11, 12, 43, 44, 28, 74, 27, 40, 0)
s = 155: (0, 35, 47, 8, 13, 68, 61, 26, 93, 23, 26, 0)
s = 156: (0, 61, 34, 11, 15, 54, 38, 24, 77, 22, 27, 0)
s = 157: (0, 38, 49, 9, 13, 39, 32, 26, 82, 21, 38, 0)
s = 158: (0, 29, 49, 12, 13, 43, 48, 36, 68, 26, 54, 0)
s = 159: (0, 45, 39, 6, 19, 66, 34, 29, 56, 14, 32, 0)
s = 160: (0, 45, 33, 7, 15, 44, 28, 23, 71, 20, 30, 0)
s = 161: (0, 39, 36, 9, 10, 42, 51, 31, 92, 23, 29, 0)
s = 162: (0, 36, 25, 9, 11, 41, 39, 28, 58, 17, 36, 0)
s = 163: (0, 56, 40, 7, 11, 43, 77, 18, 73, 14, 33, 0)
s = 164: (0, 40, 37, 7, 26, 62, 55, 27, 81, 15, 27, 0)
s = 165: (0, 35, 26, 14, 21, 79, 47, 24, 75, 16, 46, 0)
s = 166: (0, 31, 43, 11, 9, 46, 50, 26, 55, 17, 42, 0)
s = 167: (0, 65, 39, 8, 16, 51, 60, 18, 101, 17, 47, 0)
s = 168: (0, 52, 32, 10, 20, 48, 35, 35, 66, 20, 49, 0)
s = 169: (0, 71, 44, 10, 10, 55, 50, 30, 73, 25, 39, 0)
s = 170: (0, 34, 44, 10, 21, 55, 69, 16, 81, 12, 33, 0)
s = 171: (0, 57, 40, 14, 15, 36, 69, 35, 45, 13, 41, 0)
s = 172: (0, 70, 61, 10, 14, 42, 67, 27, 59, 20, 52, 0)
s = 173: (0, 59, 55, 9, 12, 63, 66, 21, 44, 20, 50, 0)
s = 174: (0, 26, 40, 7, 18, 47, 26, 28, 94, 23, 25, 0)
s = 175: (0, 47, 37, 11, 11, 62, 33, 34, 46, 27, 49, 0)
s = 176: (0, 75, 32, 11, 16, 71, 64, 22, 38, 18, 27, 0)
s = 177: (0, 31, 38, 11, 14, 42, 36, 25, 79, 20, 50, 0)
s = 178: (0, 44, 42, 7, 9, 73, 57, 28, 110, 21, 46, 0)
s = 179: (0, 34, 33, 11, 11, 51, 29, 35, 90, 14, 62, 0)
s = 180: (0, 60, 46, 12, 22, 46, 35, 16, 64, 18, 27, 0)
s = 181: (0, 32, 55, 7, 10, 73, 40, 28, 69, 22, 26, 0)
s = 182: (0, 47, 54, 10, 14, 47, 58, 27, 67, 14, 37, 0)
s = 183: (0, 58, 39, 5, 19, 49, 36, 32, 57, 20, 27, 0)
s = 184: (0, 34, 25, 12, 14, 72, 64, 30, 70, 19, 53, 0)
s = 185: (0, 34, 21, 14, 9, 59, 49, 25, 46, 24, 31, 0)
s = 186: (0, 30, 59, 8, 13, 45, 33, 28, 112, 14, 32, 0)
s = 187: (0, 48, 39, 10, 16, 86, 40, 38, 50, 21, 26, 0)
s = 188: (0, 57, 22, 7, 14, 51, 26, 27, 72, 18, 28, 0)
s = 189: (0, 51, 26, 10, 21, 56, 26, 20, 64, 18, 23, 0)
s = 190: (0, 66, 28, 9, 15, 47, 41, 22, 80, 30, 41, 0)
s = 191: (0, 43, 31, 9, 9, 42, 50, 21, 76, 20, 31, 0)
s = 192: (0, 37, 29, 8, 12, 50, 44, 25, 65, 18, 23, 0)
s = 193: (0, 38, 26, 13, 18, 67, 54, 27, 39, 20, 38, 0)
s = 194: (0, 43, 40, 12, 18, 53, 58, 42, 40, 18, 50, 0)
s = 195: (0, 53, 45, 13, 9, 72, 35, 25, 41, 15, 29, 0)
s = 196: (0, 44, 35, 10, 15, 49, 36, 21, 122, 11, 39, 0)
s = 197: (0, 47, 38, 9, 19, 66, 49, 19, 63, 18, 21, 0)
s = 198: (0, 37, 56, 10, 10, 43, 40, 35, 57, 17, 30, 0)
s = 199: (0, 41, 45, 7, 12, 56, 32, 24, 77, 28, 27, 0)
s = 200: (0, 46, 67, 16, 14, 75, 43, 30, 88, 12, 29, 0)
************************************************************************
ES/LS-VALUES:
jobnr.   ES(i)    LS(i)
------------------------------------------------------------------------
  0        0        0
  1        0       51
  2        0       60
  3        0       63
  4        5       57
  5        6       59
  6        5       66
  7        6       61
  8       11       65
  9       12       73
 10       11       69
 11       20       75
************************************************************************
BIG-M-VALUES:
M1 = 36, M2 = 245
************************************************************************
